(set-info :smt-lib-version 2.6)
(set-logic QF_S)
(set-info :source |
Generated by: Murphy Berzish, Mitja Kulczynski, Federico Mora, Florin Manea, Joel Day, Dirk Nowotka, Vijay Ganesh, Zhengyang Lu
Generated on: 2020-10-01
Description: Translated from a collection of real-world regex queries, AutomataArk, collected by Loris D’Antoni and Fang Wang: https://github.com/lorisdanto/automatark
Application: Evaluate solvers on real-world regex queries
Target solver: Z3str3RE, CVC4, OSTRICH, Z3seq, Z3str3, Z3-Trau
Publications: Berzish, M., Kulczynski, M., Mora, F., Manea, F., Day, J. D., Nowotka, D., & Ganesh, V. (2021, July). An SMT solver for regular expressions and linear arithmetic over string length. In CAV 2021.
|)
(set-info :license "https://creativecommons.org/licenses/by/4.0/")
(set-info :category "industrial")
(set-info :status unknown)

(declare-const X String)
(assert (str.in_re X (re.++ (str.to_re "/die|") (re.+ (re.range "0" "9")) (str.to_re "|") (re.+ (re.range "0" "9")) (str.to_re "|") (re.+ (re.union (re.range "a" "z") (re.range "0" "9"))) (str.to_re ".") ((_ re.loop 2 3) (re.range "a" "z")) (str.to_re "|") (re.+ (re.union (re.range "a" "z") (re.range "0" "9"))) (str.to_re "|/\u{a}"))))
(assert (not (str.in_re X (re.++ (str.to_re "YOUR") (re.* re.allchar) (str.to_re "/searchfast/") (re.+ (re.union (str.to_re " ") (str.to_re "\u{9}") (str.to_re "\u{a}") (str.to_re "\u{c}") (str.to_re "\u{d}"))) (str.to_re "hostiedesksearch.dropspam.com/bi/servlet/Thinstall\u{a}")))))
(assert (str.in_re X (re.++ (str.to_re "//jmx") re.allchar (str.to_re "ja") (re.opt (str.to_re "r")) (str.to_re "r=") (re.+ (re.range "0" "9")) (str.to_re "/Ui\u{a}"))))
(assert (not (str.in_re X (re.++ (str.to_re "name.cnnic.cn") (re.union (str.to_re " ") (str.to_re "\u{9}") (str.to_re "\u{a}") (str.to_re "\u{c}") (str.to_re "\u{d}")) (str.to_re "com/index.php?tpid=") (re.union (str.to_re " ") (str.to_re "\u{9}") (str.to_re "\u{a}") (str.to_re "\u{c}") (str.to_re "\u{d}")) (str.to_re "[Static") (re.* re.allchar) (str.to_re "/bar_pl/b.fcgi\u{a}")))))
(check-sat)

(exit)
